param n := 25;
param s := 23;
param t := 21;
set A :=
1 13 
1 22 
2 15 
2 19 
3 1 
3 2 
3 5 
3 6 
3 11 
3 19 
3 21 
4 6 
4 17 
4 24 
4 25 
5 15 
5 20 
6 2 
6 9 
6 10 
6 17 
6 19 
6 25 
7 18 
7 24 
7 25 
8 4 
8 12 
8 21 
9 1 
9 2 
9 3 
9 11 
9 14 
9 16 
10 9 
10 12 
10 18 
11 1 
11 8 
11 13 
12 10 
12 14 
13 8 
13 18 
13 20 
14 19 
14 20 
14 22 
14 24 
15 2 
15 16 
16 12 
16 24 
17 1 
17 2 
17 3 
17 7 
17 13 
17 25 
18 3 
18 6 
18 12 
18 21 
19 5 
19 14 
19 18 
19 25 
20 5 
20 13 
20 15 
22 15 
22 21 
23 3 
23 9 
23 20 
24 1 
24 15 
24 17 
24 20 
25 2 
25 3 
25 13 
25 14 
;
param: capacity:=
1 13 4.6 
1 22 6.3 
2 15 8.1 
2 19 5.9 
3 1 7.1 
3 2 5.4 
3 5 9.1 
3 6 8.6 
3 11 9.1 
3 19 8.8 
3 21 8.6 
4 6 8.0 
4 17 4.6 
4 24 6.1 
4 25 3.8 
5 15 9.3 
5 20 5.3 
6 2 3.7 
6 9 8.9 
6 10 8.5 
6 17 4.4 
6 19 3.1 
6 25 9.3 
7 18 8.9 
7 24 8.8 
7 25 3.2 
8 4 7.9 
8 12 4.7 
8 21 4.8 
9 1 3.1 
9 2 6.3 
9 3 8.3 
9 11 8.2 
9 14 3.6 
9 16 7.4 
10 9 4.5 
10 12 3.3 
10 18 4.4 
11 1 5.8 
11 8 4.8 
11 13 3.8 
12 10 4.9 
12 14 5.9 
13 8 6.2 
13 18 7.9 
13 20 7.7 
14 19 7.5 
14 20 6.5 
14 22 4.2 
14 24 9.0 
15 2 7.2 
15 16 7.7 
16 12 9.8 
16 24 8.7 
17 1 7.4 
17 2 8.7 
17 3 7.7 
17 7 7.2 
17 13 7.1 
17 25 5.0 
18 3 8.3 
18 6 8.3 
18 12 8.0 
18 21 5.7 
19 5 7.3 
19 14 8.1 
19 18 9.1 
19 25 3.6 
20 5 8.2 
20 13 3.2 
20 15 6.7 
22 15 8.4 
22 21 6.1 
23 3 5.6 
23 9 6.7 
23 20 4.1 
24 1 5.7 
24 15 5.9 
24 17 7.6 
24 20 3.4 
25 2 5.8 
25 3 5.1 
25 13 5.8 
25 14 8.4 
;
param: cost:=
1 13 8.1 
1 22 7.1 
2 15 4.0 
2 19 9.9 
3 1 1.7 
3 2 4.7 
3 5 1.1 
3 6 7.9 
3 11 8.5 
3 19 2.4 
3 21 4.5 
4 6 9.6 
4 17 9.5 
4 24 7.3 
4 25 5.1 
5 15 6.3 
5 20 3.4 
6 2 5.9 
6 9 6.2 
6 10 9.9 
6 17 2.8 
6 19 3.5 
6 25 1.2 
7 18 6.2 
7 24 7.3 
7 25 2.4 
8 4 8.1 
8 12 9.4 
8 21 2.9 
9 1 6.5 
9 2 9.4 
9 3 2.1 
9 11 4.9 
9 14 7.3 
9 16 4.8 
10 9 7.1 
10 12 2.2 
10 18 2.0 
11 1 3.3 
11 8 1.3 
11 13 2.6 
12 10 7.5 
12 14 5.8 
13 8 6.4 
13 18 9.7 
13 20 6.6 
14 19 4.0 
14 20 7.6 
14 22 1.3 
14 24 6.9 
15 2 6.1 
15 16 7.5 
16 12 2.2 
16 24 7.1 
17 1 3.8 
17 2 7.4 
17 3 4.4 
17 7 6.1 
17 13 8.2 
17 25 9.8 
18 3 10.0 
18 6 2.2 
18 12 7.0 
18 21 5.4 
19 5 3.6 
19 14 8.3 
19 18 2.9 
19 25 9.4 
20 5 9.2 
20 13 9.8 
20 15 7.2 
22 15 3.8 
22 21 9.7 
23 3 2.0 
23 9 3.3 
23 20 9.0 
24 1 1.4 
24 15 7.5 
24 17 3.5 
24 20 9.9 
25 2 3.1 
25 3 6.3 
25 13 9.2 
25 14 8.0 
;